Read MPS format model from file dat/rmp/DER_48_32768_10.mps
Reading time = 1.11 seconds
: 32816 rows, 73872 columns, 3209117 nonzeros
Gurobi Optimizer version 9.0.0 build v9.0.0rc2 (linux64)
Optimize a model with 32816 rows, 73872 columns and 3209117 nonzeros
Model fingerprint: 0x75233e4c
Coefficient statistics:
  Matrix range     [8e-05, 1e+01]
  Objective range  [3e-01, 1e+03]
  Bounds range     [2e+05, 2e+05]
  RHS range        [1e+00, 1e+00]
Ordering time: 0.04s

Barrier statistics:
 AA' NZ     : 1.473e+06
 Factor NZ  : 1.842e+06 (roughly 60 MBytes of memory)
 Factor Ops : 1.080e+08 (less than 1 second per iteration)
 Threads    : 1

                  Objective                Residual
Iter       Primal          Dual         Primal    Dual     Compl     Time
   0   7.52867847e+09 -3.50522445e+08  2.60e+08 1.16e-02  2.50e+06     1s
   1   1.20474316e+08 -6.11155128e+07  4.01e+06 3.64e-12  3.93e+04     1s
   2   8.86967472e+06 -2.76050299e+07  2.90e+05 3.64e-12  3.16e+03     1s
   3   6.54851171e+05 -1.48919766e+07  1.80e+04 3.64e-12  3.56e+02     1s
   4   1.00064504e+05 -2.68733662e+06  7.08e-10 1.82e-12  3.77e+01     2s
   5   9.93681252e+04  6.68968132e+04  1.36e-09 3.64e-12  4.39e-01     2s
   6   9.89639339e+04  7.34489892e+04  8.90e-10 3.64e-12  3.45e-01     2s
   7   9.82544368e+04  8.80782995e+04  1.23e-09 3.64e-12  1.38e-01     2s
   8   9.79113697e+04  9.54532308e+04  1.90e-09 1.82e-12  3.33e-02     2s
   9   9.76412249e+04  9.68442545e+04  1.95e-09 2.73e-12  1.08e-02     3s
  10   9.75122365e+04  9.71025839e+04  3.22e-09 1.82e-12  5.54e-03     3s
  11   9.74780410e+04  9.71853868e+04  1.96e-08 1.82e-12  3.96e-03     3s
  12   9.74019248e+04  9.72576040e+04  1.20e-08 1.82e-12  1.95e-03     3s
  13   9.73392828e+04  9.73106342e+04  1.90e-08 3.64e-12  3.88e-04     4s
  14   9.73253779e+04  9.73173776e+04  1.37e-08 1.82e-12  1.08e-04     4s
  15   9.73230004e+04  9.73191355e+04  1.92e-08 1.82e-12  5.23e-05     4s
  16   9.73222288e+04  9.73201428e+04  1.41e-08 2.10e-12  2.82e-05     5s
  17   9.73218933e+04  9.73206750e+04  2.59e-08 2.58e-12  1.65e-05     5s
  18   9.73214868e+04  9.73210206e+04  4.75e-08 1.82e-12  6.31e-06     5s
  19   9.73214187e+04  9.73211755e+04  4.05e-08 1.82e-12  3.29e-06     5s
  20   9.73213621e+04  9.73212571e+04  7.06e-08 1.82e-12  1.42e-06     6s
  21   9.73213429e+04  9.73212991e+04  1.04e-07 1.82e-12  5.93e-07     6s
  22   9.73213420e+04  9.73213059e+04  1.11e-07 3.64e-12  4.87e-07     6s
  23   9.73213405e+04  9.73213104e+04  2.23e-07 3.64e-12  4.07e-07     6s
  24   9.73213362e+04  9.73213324e+04  7.77e-07 1.82e-12  5.14e-08     7s
  25   9.73213360e+04  9.73213357e+04  1.20e-06 1.82e-12  3.44e-09     7s
  26   9.73213359e+04  9.73213359e+04  1.32e-06 3.64e-12  2.12e-11     7s
  27   9.73213359e+04  9.73213359e+04  5.50e-07 1.82e-12  2.12e-14     7s

Barrier solved model in 27 iterations and 7.35 seconds
Optimal objective 9.73213359e+04

Solve time: 7.355317527
Barrier iterations: 27
